branch-and-cut/resultados/I080/i080-033.sol
1794
12
13 27
3 49
43 30
6 30
27 49
2 16
16 73
1 13
13 73
4 43
16 43
13 5
